SCIP version 5.0.0 [precision: 8 byte] [memory: block] [mode: optimized] [LP solver: NONE] [GitHash: 3bbd232]
Copyright (C) 2002-2017 Konrad-Zuse-Zentrum fuer Informationstechnik Berlin (ZIB)

External codes: 
  Readline EditLine w  GNU library for command line editing (gnu.org/s/readline)
  CppAD 20160000.1     Algorithmic Differentiation of C++ algorithms developed by B. Bell (www.coin-or.org/CppAD)
  ZLIB 1.2.5           General purpose compression library by J. Gailly and M. Adler (zlib.net)
  GMP 6.1.2            GNU Multiple Precision Arithmetic Library developed by T. Granlund (gmplib.org)

user parameter file <scip.set> not found - using default parameters

read problem <../../Split_data/output/breast/5/0_sample_breast.logreg>
============

File name	:	../../Split_data/output/breast/5/0_sample_breast.logreg
Problem name 	:	0_sample_breast
Number of data	:	155
Number of var	:	33
The given data has linear independence

[dim=1] time: 0.003896
[dim=2] time: 0.008029
[dim=3] time: 0.012339
[dim=4] time: 0.016477
[dim=5] time: 0.020086
[dim=6] time: 0.023544
[dim=7] time: 0.026991
[dim=8] time: 0.030638
[dim=9] Time of forward = 0.033784sec.
AIC: 138.303
k: 8

[dim=33] time: 0.012516
[dim=32] time: 0.021727
[dim=31] time: 0.034481
[dim=30] time: 0.044645
[dim=29] time: 0.054302
[dim=28] time: 0.062763
[dim=27] time: 0.070159
[dim=26] time: 0.076821
[dim=25] time: 0.08383
[dim=24] Time of backward = 0.090346sec.
AIC: 122.092
k: 25
